StudentsNr = 10;
InstructorsNr = 17;
DaysNr = 2;
SlotsPerDay = 10;
AvailabilitySlotsLenght = 5;
RoomNr = 2;
ProgrammNr = 2;
DegreeNr = 1;
RolesNr = 0;
CoursesNr = 3;
InstructorsProgramm = [{1}, {2}, {1}, {2}, {2}, {1}, {1}, {2}, {1, 2}, {1}, {1, 2}, {2}, {1}, {1, 2}, {1, 2}, {2}, {1}];
InstructorRolesPerProgramm = array2d(1..ProgrammNr,{},[]);
InstructorsAvailability = [|1, 1, 1, 1, |0, 0, 0, 0, |0, 0, 1, 0, |1, 1, 1, 1, |1, 1, 1, 1, |0, 1, 1, 0, |0, 0, 0, 1, |0, 1, 1, 1, |1, 1, 1, 1, |1, 1, 1, 1, |0, 0, 1, 0, |1, 1, 1, 0, |1, 0, 1, 1, |0, 1, 1, 1, |0, 1, 1, 0, |0, 0, 1, 1, |1, 1, 1, 1|];
StudentsProgramm = [2, 1, 2, 1, 1, 2, 2, 2, 2, 2];
StudentsDegree = [1, 1, 1, 1, 1, 1, 1, 1, 1, 1];
StudentsSupervisorId = [14, 14, 14, 7, 7, 14, 4, 16, 4, 9];
StudentsCourseIds = [{2, 3}, {2, 3}, {1, 3}, {2, 3}, {1, 3}, {1, 2}, {1, 3}, {1, 3}, {1, 2}, {1, 2}];
StudentsAvailability = [|1, 1, 1, 1, |1, 1, 1, 1, |0, 1, 1, 1, |0, 0, 0, 1, |1, 1, 1, 1, |0, 0, 0, 0, |1, 1, 1, 0, |1, 1, 1, 1, |0, 1, 1, 1, |1, 1, 1, 1|];
TheoryticalMinCard = [3, 3, 2, 2, 2, 2, 2, 3, 2, 3];
CoursesInstructorIds = [{1, 4, 5, 7, 10, 12, 14}, {1, 2, 3, 5, 6, 10, 11, 16, 17}, {1, 5, 7, 8, 9, 10, 15}];
RolesDemands = [];
RolesContinuity = [];
ExamLen = [2, 2, 2, 2, 2, 2, 2, 2, 2, 2];
LunchTsMinLen = 2;
LunchStarts = [4..7, 12..17];
SupervisorAvailable = 0;
OptimalLunchLenght = [2, 2];
OptimalStartTs = [0, 1];
OptimalFinishTs = [0, 10];
MinimizeRooms = 100;
RolesSoftContinuity = array2d(1..2,{},[]);
SameDegreeInRoom = 0;
Mergeability = 2;
